NAME          DCAP_3_4_2_300_SS273
ROWS
 N  OBJ
 L  CON1
 L  CON2
 L  CON3
 L  CON4
 L  CON5
 L  CON6
 L  CON7
 L  CON8
 L  CON9
 L  CON10
 L  CON11
 L  CON12
 E  CON13
 E  CON14
 E  CON15
 E  CON16
 E  CON17
 E  CON18
 E  CON19
 E  CON20
COLUMNS
    x[1,1]    OBJ       6.180167      CON1      1.000000    
    x[1,1]    CON7      -1.000000     CON8      -1.000000   
    x[1,2]    OBJ       5.039546      CON2      1.000000    
    x[1,2]    CON8      -1.000000   
    x[2,1]    OBJ       6.732585      CON3      1.000000    
    x[2,1]    CON9      -1.000000     CON10     -1.000000   
    x[2,2]    OBJ       7.443064      CON4      1.000000    
    x[2,2]    CON10     -1.000000   
    x[3,1]    OBJ       6.563535      CON5      1.000000    
    x[3,1]    CON11     -1.000000     CON12     -1.000000   
    x[3,2]    OBJ       6.054841      CON6      1.000000    
    x[3,2]    CON12     -1.000000   
    MARKER    'MARKER'                'INTORG'
    u[1,1]    OBJ       48.076654     CON1      -1.000000   
    u[1,2]    OBJ       49.466655     CON2      -1.000000   
    u[2,1]    OBJ       49.996186     CON3      -1.000000   
    u[2,2]    OBJ       32.230043     CON4      -1.000000   
    u[3,1]    OBJ       20.066487     CON5      -1.000000   
    u[3,2]    OBJ       27.484319     CON6      -1.000000   
    y[1,1,1]  OBJ       8.123009      CON7      0.767522    
    y[1,1,1]  CON13     1.000000    
    y[1,1,2]  OBJ       6.078093      CON8      0.597971    
    y[1,1,2]  CON14     1.000000    
    y[1,2,1]  OBJ       8.753843      CON7      1.339923    
    y[1,2,1]  CON15     1.000000    
    y[1,2,2]  OBJ       6.023213      CON8      0.606574    
    y[1,2,2]  CON16     1.000000    
    y[1,3,1]  OBJ       8.160721      CON7      1.187931    
    y[1,3,1]  CON17     1.000000    
    y[1,3,2]  OBJ       7.011029      CON8      0.765993    
    y[1,3,2]  CON18     1.000000    
    y[1,4,1]  OBJ       7.621093      CON7      0.921516    
    y[1,4,1]  CON19     1.000000    
    y[1,4,2]  OBJ       9.842828      CON8      0.810404    
    y[1,4,2]  CON20     1.000000    
    y[2,1,1]  OBJ       8.396002      CON9      0.767522    
    y[2,1,1]  CON13     1.000000    
    y[2,1,2]  OBJ       5.167998      CON10     0.597971    
    y[2,1,2]  CON14     1.000000    
    y[2,2,1]  OBJ       8.621306      CON9      1.339923    
    y[2,2,1]  CON15     1.000000    
    y[2,2,2]  OBJ       8.582669      CON10     0.606574    
    y[2,2,2]  CON16     1.000000    
    y[2,3,1]  OBJ       5.682020      CON9      1.187931    
    y[2,3,1]  CON17     1.000000    
    y[2,3,2]  OBJ       7.563335      CON10     0.765993    
    y[2,3,2]  CON18     1.000000    
    y[2,4,1]  OBJ       6.858573      CON9      0.921516    
    y[2,4,1]  CON19     1.000000    
    y[2,4,2]  OBJ       8.683797      CON10     0.810404    
    y[2,4,2]  CON20     1.000000    
    y[3,1,1]  OBJ       6.732933      CON11     0.767522    
    y[3,1,1]  CON13     1.000000    
    y[3,1,2]  OBJ       7.256833      CON12     0.597971    
    y[3,1,2]  CON14     1.000000    
    y[3,2,1]  OBJ       5.864234      CON11     1.339923    
    y[3,2,1]  CON15     1.000000    
    y[3,2,2]  OBJ       6.196802      CON12     0.606574    
    y[3,2,2]  CON16     1.000000    
    y[3,3,1]  OBJ       6.319815      CON11     1.187931    
    y[3,3,1]  CON17     1.000000    
    y[3,3,2]  OBJ       5.923942      CON12     0.765993    
    y[3,3,2]  CON18     1.000000    
    y[3,4,1]  OBJ       9.994936      CON11     0.921516    
    y[3,4,1]  CON19     1.000000    
    y[3,4,2]  OBJ       8.212344      CON12     0.810404    
    y[3,4,2]  CON20     1.000000    
    z[1,1]    OBJ       887.776694    CON13     1.000000    
    z[1,2]    OBJ       897.497348    CON14     1.000000    
    z[2,1]    OBJ       578.983733    CON15     1.000000    
    z[2,2]    OBJ       613.113755    CON16     1.000000    
    z[3,1]    OBJ       566.959527    CON17     1.000000    
    z[3,2]    OBJ       537.672268    CON18     1.000000    
    z[4,1]    OBJ       744.819846    CON19     1.000000    
    z[4,2]    OBJ       842.658054    CON20     1.000000    
    MARKER    'MARKER'                 'INTEND'
RHS
    RHS       CON1      -0.000000     CON2      -0.000000   
    RHS       CON3      -0.000000     CON4      -0.000000   
    RHS       CON5      -0.000000     CON6      -0.000000   
    RHS       CON7      -0.000000     CON8      -0.000000   
    RHS       CON9      -0.000000     CON10     -0.000000   
    RHS       CON11     -0.000000     CON12     -0.000000   
    RHS       CON13     1.000000      CON14     1.000000    
    RHS       CON15     1.000000      CON16     1.000000    
    RHS       CON17     1.000000      CON18     1.000000    
    RHS       CON19     1.000000      CON20     1.000000    
BOUNDS
 BV BOUND     u[1,1]  
 BV BOUND     u[1,2]  
 BV BOUND     u[2,1]  
 BV BOUND     u[2,2]  
 BV BOUND     u[3,1]  
 BV BOUND     u[3,2]  
 BV BOUND     y[1,1,1]
 BV BOUND     y[1,1,2]
 BV BOUND     y[1,2,1]
 BV BOUND     y[1,2,2]
 BV BOUND     y[1,3,1]
 BV BOUND     y[1,3,2]
 BV BOUND     y[1,4,1]
 BV BOUND     y[1,4,2]
 BV BOUND     y[2,1,1]
 BV BOUND     y[2,1,2]
 BV BOUND     y[2,2,1]
 BV BOUND     y[2,2,2]
 BV BOUND     y[2,3,1]
 BV BOUND     y[2,3,2]
 BV BOUND     y[2,4,1]
 BV BOUND     y[2,4,2]
 BV BOUND     y[3,1,1]
 BV BOUND     y[3,1,2]
 BV BOUND     y[3,2,1]
 BV BOUND     y[3,2,2]
 BV BOUND     y[3,3,1]
 BV BOUND     y[3,3,2]
 BV BOUND     y[3,4,1]
 BV BOUND     y[3,4,2]
 BV BOUND     z[1,1]  
 BV BOUND     z[1,2]  
 BV BOUND     z[2,1]  
 BV BOUND     z[2,2]  
 BV BOUND     z[3,1]  
 BV BOUND     z[3,2]  
 BV BOUND     z[4,1]  
 BV BOUND     z[4,2]  
ENDATA
